(set-info :origin "SVCOMP13 benchmarks generated by Arie Gurfinkel")
(set-info :status unsat)
(set-logic HORN)
(declare-fun cp-rel-entry () Bool)
(declare-fun cp-rel-bb1.i.i16.i.i () Bool)
(declare-fun cp-rel-bb1.i.i (Real Real Real) Bool)
(assert |cp-rel-entry|)
(assert (forall ((?A Real) (?B Real) (?C Real) (?D Bool) )(let (($x467082 (and |cp-rel-entry| (<= ?C 0.0) (>= ?B 1.0) (<= ?B 1.0) (>= ?A 0.0) (<= ?A 0.0) (= ?D true) (>= ?C 0.0))))
(=> $x467082 (|cp-rel-bb1.i.i| ?A ?B ?C))))
)
(assert (forall ((?A Real) (?B Real) (?C Real) (?D Real) (?E Real) (?F Real) (?G Bool) (?H Bool) (?I Bool) (?J Bool) (?K Bool) (?L Bool) (?M Real) (?N Real) (?O Bool) (?P Bool) (?Q Bool) (?R Bool) (?S Bool) (?T Bool) (?U Real) (?V Real) (?W Bool) (?X Bool) (?Y Bool) (?Z Bool) (?A1 Bool) (?B1 Bool) (?C1 Bool) (?D1 Bool) (?E1 Bool) (?F1 Bool) (?G1 Bool) (?H1 Real) (?I1 Real) (?J1 Bool) (?K1 Bool) (?L1 Real) (?M1 Bool) (?N1 Real) (?O1 Bool) (?P1 Real) (?Q1 Real) (?R1 Bool) (?S1 Bool) (?T1 Real) (?U1 Bool) (?V1 Bool) )(let (($x146995 (|cp-rel-bb1.i.i| ?D ?E ?F)))
(let (($x203860 (= ?M1 (or ?V1 ?U1))))
(let (($x741760 (or (not ?G) (and ?H ?I (not ?J)))))
(let (($x418842 (or (not ?G) ?I)))
(let (($x538275 (not ?K)))
(let (($x251913 (or $x538275 (and ?G ?L (<= ?M ?N) (>= ?M ?N)) (and ?H ?O ?J (<= ?M ?B) (>= ?M ?B)))))
(let (($x635918 (or $x538275 (and ?L (not ?O)) (and ?O (not ?L)))))
(let (($x839425 (or (not ?P) (and ?K ?Q (not ?R)))))
(let (($x888060 (or (not ?P) ?Q)))
(let (($x341615 (not ?S)))
(let (($x507711 (or $x341615 (and ?P ?T (<= ?U ?V) (>= ?U ?V)) (and ?K ?W ?R (<= ?U ?A) (>= ?U ?A)))))
(let (($x420617 (or $x341615 (and ?T (not ?W)) (and ?W (not ?T)))))
(let (($x850129 (or (not ?X) (and ?S ?Y ?Z))))
(let (($x484709 (or (not ?X) ?Y)))
(let (($x438900 (or (not ?A1) (and ?S ?B1 (not ?Z)))))
(let (($x490880 (or (not ?A1) ?B1)))
(let (($x379498 (or (not ?C1) (and ?X ?D1 (not ?E1)))))
(let (($x419110 (or (not ?C1) ?D1)))
(let (($x417221 (and ?A1 ?K1 (<= ?H1 ?L1) (>= ?H1 ?L1) (<= ?I1 ?C) (>= ?I1 ?C))))
(let (($x253695 (>= ?H1 ?M)))
(let (($x505189 (<= ?H1 ?M)))
(let (($x420333 (not ?F1)))
(let (($x152948 (or $x420333 (and ?C1 ?G1 $x505189 $x253695 (<= ?I1 ?C) (>= ?I1 ?C)) (and ?X ?J1 ?E1 $x505189 $x253695 (<= ?I1 1.0) (>= ?I1 1.0)) $x417221)))
(let (($x279245 (or $x420333 (and ?G1 (not ?J1) (not ?K1)) (and ?J1 (not ?G1) (not ?K1)) (and ?K1 (not ?G1) (not ?J1)))))
(let (($x295403 (= ?F1 true)))
(let (($x47261 (= ?M1 true)))
(let (($x331497 (= ?J (= ?N1 0.0))))
(let (($x906839 (= ?P1 (ite ?O1 1.0 0.0))))
(let (($x302478 (= ?R (= ?Q1 0.0))))
(let (($x89165 (= ?V (ite ?R1 1.0 0.0))))
(let (($x700362 (= ?E1 (not (<= ?M 1.0)))))
(let (($x280350 (= ?S1 (not (<= ?M 0.0)))))
(let (($x846960 (= ?T1 (+ (~ 1.0) ?M))))
(let (($x228529 (= ?L1 (ite ?S1 ?T1 ?M))))
(let (($x329333 (= ?U1 (= ?U 0.0))))
(let (($x142106 (= ?V1 (= ?I1 0.0))))
(let (($x516544 (and (|cp-rel-bb1.i.i| ?A ?B ?C) $x142106 $x329333 $x228529 $x846960 $x280350 $x700362 (= ?Z (= ?C 0.0)) $x89165 (= ?R1 (= ?A 0.0)) $x302478 (= ?N (+ ?P1 ?B)) $x906839 (= ?O1 (not (<= 2.0 ?B))) $x331497 (>= ?F ?I1) (<= ?F ?I1) (>= ?E ?H1) (<= ?E ?H1) (>= ?D ?U) (<= ?D ?U) $x47261 $x295403 $x279245 $x152948 $x419110 $x379498 $x490880 $x438900 $x484709 $x850129 $x420617 $x507711 $x888060 $x839425 $x635918 $x251913 $x418842 $x741760 $x203860)))
(=> $x516544 $x146995)))))))))))))))))))))))))))))))))))))))
)
(assert (forall ((?A Real) (?B Real) (?C Real) (?D Bool) (?E Bool) (?F Bool) (?G Bool) (?H Bool) (?I Bool) (?J Real) (?K Real) (?L Bool) (?M Bool) (?N Bool) (?O Bool) (?P Bool) (?Q Bool) (?R Real) (?S Real) (?T Bool) (?U Bool) (?V Bool) (?W Bool) (?X Bool) (?Y Bool) (?Z Bool) (?A1 Bool) (?B1 Bool) (?C1 Bool) (?D1 Bool) (?E1 Real) (?F1 Real) (?G1 Bool) (?H1 Bool) (?I1 Real) (?J1 Bool) (?K1 Real) (?L1 Bool) (?M1 Real) (?N1 Real) (?O1 Bool) (?P1 Bool) (?Q1 Real) (?R1 Bool) (?S1 Bool) )(let (($x203860 (= ?J1 (or ?S1 ?R1))))
(let (($x741760 (or (not ?D) (and ?E ?F (not ?G)))))
(let (($x418842 (or (not ?D) ?F)))
(let (($x538275 (not ?H)))
(let (($x351767 (or $x538275 (and ?D ?I (<= ?J ?K) (>= ?J ?K)) (and ?E ?L ?G (<= ?J ?B) (>= ?J ?B)))))
(let (($x635918 (or $x538275 (and ?I (not ?L)) (and ?L (not ?I)))))
(let (($x839425 (or (not ?M) (and ?H ?N (not ?O)))))
(let (($x888060 (or (not ?M) ?N)))
(let (($x341615 (not ?P)))
(let (($x211682 (or $x341615 (and ?M ?Q (<= ?R ?S) (>= ?R ?S)) (and ?H ?T ?O (<= ?R ?A) (>= ?R ?A)))))
(let (($x420617 (or $x341615 (and ?Q (not ?T)) (and ?T (not ?Q)))))
(let (($x850129 (or (not ?U) (and ?P ?V ?W))))
(let (($x484709 (or (not ?U) ?V)))
(let (($x438900 (or (not ?X) (and ?P ?Y (not ?W)))))
(let (($x490880 (or (not ?X) ?Y)))
(let (($x379498 (or (not ?Z) (and ?U ?A1 (not ?B1)))))
(let (($x419110 (or (not ?Z) ?A1)))
(let (($x573139 (and ?X ?H1 (<= ?E1 ?I1) (>= ?E1 ?I1) (<= ?F1 ?C) (>= ?F1 ?C))))
(let (($x253695 (>= ?E1 ?J)))
(let (($x505189 (<= ?E1 ?J)))
(let (($x420333 (not ?C1)))
(let (($x525065 (or $x420333 (and ?Z ?D1 $x505189 $x253695 (<= ?F1 ?C) (>= ?F1 ?C)) (and ?U ?G1 ?B1 $x505189 $x253695 (<= ?F1 1.0) (>= ?F1 1.0)) $x573139)))
(let (($x279245 (or $x420333 (and ?D1 (not ?G1) (not ?H1)) (and ?G1 (not ?D1) (not ?H1)) (and ?H1 (not ?D1) (not ?G1)))))
(let (($x295403 (= ?C1 true)))
(let (($x331497 (= ?G (= ?K1 0.0))))
(let (($x906839 (= ?M1 (ite ?L1 1.0 0.0))))
(let (($x302478 (= ?O (= ?N1 0.0))))
(let (($x89165 (= ?S (ite ?O1 1.0 0.0))))
(let (($x700362 (= ?B1 (not (<= ?J 1.0)))))
(let (($x280350 (= ?P1 (not (<= ?J 0.0)))))
(let (($x846960 (= ?Q1 (+ (~ 1.0) ?J))))
(let (($x228529 (= ?I1 (ite ?P1 ?Q1 ?J))))
(let (($x329333 (= ?R1 (= ?R 0.0))))
(let (($x142106 (= ?S1 (= ?F1 0.0))))
(let (($x146995 (|cp-rel-bb1.i.i| ?A ?B ?C)))
(let (($x523329 (and $x146995 $x142106 $x329333 $x228529 $x846960 $x280350 $x700362 (= ?W (= ?C 0.0)) $x89165 (= ?O1 (= ?A 0.0)) $x302478 (= ?K (+ ?M1 ?B)) $x906839 (= ?L1 (not (<= 2.0 ?B))) $x331497 (not (= ?J1 true)) $x295403 $x279245 $x525065 $x419110 $x379498 $x490880 $x438900 $x484709 $x850129 $x420617 $x211682 $x888060 $x839425 $x635918 $x351767 $x418842 $x741760 $x203860)))
(=> $x523329 |cp-rel-bb1.i.i16.i.i|))))))))))))))))))))))))))))))))))))))
)
(assert (not cp-rel-bb1.i.i16.i.i))
(check-sat)
